(declare-sort Node)

(declare-fun R (Node Node) Bool)
(declare-const na Node)
(declare-const nb Node)
(declare-const nc Node)
(assert (R na nb))
(assert (R nb na))
(assert (not (R na nc)))
(assert (not (R nb nc)))
(assert (not (R nc na)))
(assert (not (R nc nb)))
(assert (tc na nc))
(check-sat)
